
Gurobi 11.0.0 (win64) logging started Sat Jun 15 10:21:40 2024

Set parameter LogFile to value "./GurobiLog/stage_1_iter_28.log"
Gurobi Optimizer version 11.0.0 build v11.0.0rc2 (win64 - Windows 10.0 (18363.2))

CPU model: Intel(R) Core(TM) i7-8700 CPU @ 3.20GHz, instruction set [SSE2|AVX|AVX2]
Thread count: 6 physical cores, 12 logical processors, using up to 1 threads

Optimize a model with 1509 rows, 20478 columns and 175435 nonzeros
Coefficient statistics:
  Matrix range     [6e-04, 7e+03]
  Objective range  [1e-01, 2e+05]
  Bounds range     [2e-01, 1e+06]
  RHS range        [1e+00, 4e+04]
LP warm-start: use basis
Iteration    Objective       Primal Inf.    Dual Inf.      Time
       0    6.2092417e+04   1.627391e+03   0.000000e+00      0s
     112    6.3114969e+04   0.000000e+00   0.000000e+00      0s

Solved in 112 iterations and 0.02 seconds (0.02 work units)
Optimal objective  6.311496859e+04
